benchmarks_CP/INST_36x36/25/inst36x36_25_10.dzn
S=6;
start=[|
2,	3,	-1,	16,	-1,	-1,	-1,	-1,	-1,	-1,	-1,	-1,	-1,	-1,	-1,	36,	11,	4,	-1,	29,	-1,	14,	-1,	-1,	-1,	-1,	-1,	-1,	-1,	-1,	5,	-1,	-1,	-1,	-1,	-1|
-1,	-1,	-1,	-1,	19,	-1,	-1,	-1,	-1,	-1,	-1,	35,	8,	-1,	-1,	-1,	-1,	-1,	-1,	-1,	-1,	-1,	-1,	-1,	-1,	-1,	-1,	-1,	-1,	-1,	-1,	-1,	-1,	-1,	-1,	15|
-1,	-1,	36,	-1,	-1,	-1,	-1,	-1,	-1,	-1,	-1,	-1,	-1,	-1,	-1,	10,	-1,	-1,	-1,	-1,	-1,	4,	-1,	-1,	6,	17,	1,	-1,	-1,	-1,	-1,	-1,	-1,	7,	-1,	-1|
-1,	-1,	-1,	35,	-1,	-1,	36,	1,	3,	-1,	-1,	-1,	28,	-1,	-1,	24,	-1,	-1,	16,	-1,	30,	-1,	-1,	17,	-1,	8,	19,	-1,	-1,	-1,	25,	-1,	-1,	-1,	-1,	-1|
-1,	8,	-1,	-1,	-1,	-1,	30,	-1,	17,	-1,	-1,	26,	-1,	25,	-1,	3,	-1,	-1,	-1,	-1,	10,	-1,	-1,	-1,	-1,	-1,	-1,	-1,	-1,	-1,	-1,	-1,	-1,	-1,	12,	-1|
-1,	32,	-1,	-1,	7,	-1,	-1,	23,	-1,	-1,	13,	-1,	-1,	12,	17,	-1,	-1,	-1,	-1,	-1,	22,	-1,	-1,	-1,	9,	-1,	-1,	15,	-1,	-1,	-1,	-1,	14,	-1,	-1,	-1|
-1,	-1,	-1,	-1,	-1,	-1,	-1,	-1,	20,	9,	8,	5,	35,	-1,	-1,	-1,	27,	-1,	4,	-1,	-1,	-1,	-1,	-1,	-1,	-1,	-1,	-1,	-1,	-1,	-1,	-1,	29,	33,	-1,	-1|
-1,	-1,	-1,	-1,	-1,	-1,	14,	-1,	-1,	13,	-1,	-1,	5,	-1,	-1,	-1,	26,	-1,	-1,	-1,	-1,	-1,	19,	15,	29,	-1,	-1,	-1,	-1,	-1,	-1,	-1,	-1,	-1,	-1,	27|
-1,	-1,	-1,	19,	15,	27,	-1,	-1,	-1,	-1,	-1,	1,	-1,	-1,	-1,	-1,	-1,	-1,	6,	-1,	-1,	18,	-1,	29,	-1,	-1,	32,	-1,	33,	-1,	17,	9,	34,	-1,	22,	-1|
-1,	-1,	-1,	-1,	-1,	-1,	27,	-1,	-1,	-1,	29,	-1,	9,	-1,	36,	-1,	-1,	-1,	8,	30,	-1,	-1,	-1,	-1,	17,	-1,	-1,	14,	-1,	-1,	35,	20,	-1,	-1,	-1,	-1|
-1,	-1,	8,	6,	-1,	-1,	-1,	-1,	-1,	-1,	-1,	-1,	-1,	-1,	-1,	-1,	-1,	-1,	-1,	-1,	-1,	-1,	-1,	-1,	-1,	25,	-1,	-1,	27,	-1,	-1,	-1,	-1,	14,	11,	-1|
32,	11,	33,	-1,	-1,	-1,	-1,	-1,	12,	-1,	31,	4,	-1,	-1,	-1,	34,	-1,	-1,	-1,	10,	-1,	2,	-1,	-1,	8,	-1,	5,	1,	-1,	-1,	-1,	6,	-1,	-1,	18,	25|
-1,	-1,	32,	7,	-1,	5,	-1,	-1,	-1,	-1,	-1,	15,	-1,	-1,	-1,	-1,	-1,	-1,	-1,	-1,	-1,	-1,	-1,	34,	2,	-1,	12,	25,	-1,	-1,	4,	-1,	-1,	-1,	-1,	19|
-1,	-1,	11,	-1,	9,	-1,	4,	-1,	5,	36,	-1,	-1,	-1,	10,	15,	-1,	-1,	-1,	-1,	-1,	-1,	-1,	1,	-1,	23,	-1,	-1,	-1,	-1,	3,	33,	-1,	-1,	-1,	-1,	14|
-1,	15,	-1,	-1,	-1,	-1,	-1,	-1,	7,	-1,	-1,	-1,	-1,	32,	-1,	-1,	-1,	-1,	26,	21,	-1,	-1,	-1,	-1,	27,	-1,	-1,	35,	28,	-1,	-1,	-1,	-1,	36,	25,	22|
35,	-1,	6,	10,	-1,	-1,	2,	-1,	-1,	-1,	24,	-1,	-1,	20,	11,	-1,	17,	26,	-1,	-1,	-1,	-1,	-1,	-1,	-1,	-1,	-1,	19,	-1,	-1,	-1,	-1,	3,	-1,	-1,	18|
-1,	22,	-1,	26,	-1,	-1,	18,	-1,	-1,	-1,	-1,	-1,	21,	-1,	-1,	-1,	-1,	-1,	-1,	-1,	-1,	-1,	-1,	-1,	-1,	-1,	-1,	-1,	-1,	-1,	34,	-1,	-1,	-1,	-1,	20|
-1,	-1,	-1,	-1,	-1,	-1,	-1,	-1,	30,	-1,	-1,	-1,	-1,	-1,	-1,	-1,	-1,	9,	-1,	-1,	16,	25,	12,	-1,	7,	-1,	6,	-1,	-1,	-1,	-1,	-1,	32,	-1,	-1,	-1|
-1,	-1,	-1,	-1,	-1,	-1,	-1,	8,	-1,	-1,	-1,	-1,	-1,	27,	-1,	-1,	-1,	-1,	23,	-1,	-1,	-1,	-1,	-1,	-1,	-1,	-1,	-1,	-1,	-1,	-1,	-1,	-1,	-1,	-1,	31|
-1,	-1,	-1,	-1,	-1,	-1,	-1,	30,	-1,	34,	-1,	-1,	-1,	-1,	-1,	-1,	-1,	31,	-1,	-1,	-1,	-1,	-1,	-1,	35,	-1,	-1,	-1,	-1,	-1,	-1,	7,	-1,	-1,	-1,	21|
-1,	-1,	-1,	-1,	-1,	-1,	-1,	-1,	-1,	33,	-1,	19,	-1,	35,	26,	20,	-1,	25,	29,	-1,	-1,	31,	-1,	-1,	-1,	-1,	-1,	-1,	-1,	-1,	-1,	-1,	15,	-1,	-1,	10|
-1,	-1,	-1,	-1,	16,	-1,	-1,	-1,	-1,	-1,	9,	-1,	33,	-1,	-1,	7,	-1,	18,	-1,	11,	3,	-1,	27,	30,	12,	-1,	-1,	-1,	-1,	-1,	-1,	-1,	-1,	-1,	34,	-1|
-1,	14,	-1,	28,	2,	9,	-1,	36,	-1,	-1,	4,	-1,	-1,	5,	-1,	-1,	29,	8,	-1,	7,	15,	-1,	16,	-1,	-1,	-1,	24,	-1,	30,	-1,	3,	-1,	-1,	18,	27,	-1|
-1,	-1,	-1,	20,	-1,	-1,	-1,	-1,	-1,	-1,	-1,	-1,	-1,	-1,	19,	-1,	-1,	-1,	-1,	-1,	-1,	-1,	10,	-1,	-1,	-1,	-1,	-1,	-1,	17,	-1,	-1,	5,	-1,	-1,	-1|
-1,	-1,	-1,	-1,	22,	-1,	-1,	-1,	-1,	-1,	-1,	10,	-1,	6,	-1,	-1,	-1,	-1,	32,	-1,	9,	-1,	31,	-1,	-1,	23,	-1,	26,	18,	-1,	-1,	-1,	1,	21,	-1,	-1|
-1,	-1,	-1,	-1,	-1,	-1,	-1,	-1,	-1,	2,	-1,	22,	31,	-1,	-1,	-1,	-1,	-1,	-1,	-1,	-1,	-1,	30,	-1,	-1,	7,	-1,	-1,	-1,	-1,	29,	-1,	8,	11,	-1,	-1|
-1,	27,	-1,	-1,	-1,	-1,	-1,	-1,	-1,	-1,	-1,	-1,	-1,	14,	-1,	26,	-1,	19,	-1,	-1,	-1,	-1,	-1,	-1,	15,	-1,	10,	36,	-1,	11,	-1,	-1,	-1,	-1,	30,	13|
-1,	16,	-1,	-1,	23,	-1,	-1,	-1,	19,	-1,	-1,	-1,	24,	-1,	-1,	22,	10,	32,	-1,	-1,	-1,	-1,	15,	-1,	-1,	-1,	2,	-1,	-1,	33,	-1,	-1,	-1,	-1,	-1,	-1|
1,	-1,	-1,	-1,	-1,	-1,	-1,	-1,	-1,	-1,	-1,	-1,	-1,	11,	-1,	-1,	-1,	-1,	-1,	-1,	-1,	-1,	3,	-1,	28,	22,	29,	-1,	-1,	-1,	-1,	16,	-1,	15,	-1,	-1|
-1,	29,	-1,	-1,	-1,	-1,	12,	3,	-1,	-1,	-1,	-1,	-1,	-1,	-1,	-1,	-1,	27,	-1,	-1,	11,	-1,	-1,	-1,	-1,	-1,	-1,	-1,	-1,	-1,	19,	-1,	-1,	-1,	17,	-1|
-1,	-1,	12,	31,	-1,	-1,	-1,	-1,	1,	-1,	-1,	20,	-1,	30,	-1,	-1,	-1,	-1,	-1,	-1,	-1,	-1,	-1,	-1,	-1,	-1,	-1,	-1,	-1,	21,	-1,	18,	-1,	27,	-1,	-1|
-1,	-1,	-1,	-1,	-1,	11,	-1,	4,	-1,	-1,	28,	-1,	-1,	-1,	-1,	-1,	-1,	1,	31,	-1,	-1,	-1,	-1,	8,	-1,	-1,	-1,	-1,	-1,	-1,	-1,	-1,	-1,	-1,	-1,	-1|
21,	-1,	20,	29,	-1,	-1,	-1,	-1,	10,	-1,	-1,	-1,	-1,	-1,	-1,	-1,	-1,	13,	-1,	-1,	-1,	-1,	6,	-1,	-1,	-1,	-1,	-1,	-1,	-1,	-1,	-1,	19,	-1,	8,	-1|
-1,	-1,	16,	-1,	-1,	22,	-1,	-1,	-1,	3,	36,	-1,	-1,	-1,	-1,	-1,	-1,	23,	-1,	-1,	32,	5,	-1,	-1,	-1,	-1,	-1,	-1,	1,	31,	-1,	30,	24,	-1,	9,	-1|
15,	-1,	-1,	-1,	8,	-1,	-1,	16,	-1,	-1,	-1,	-1,	-1,	-1,	-1,	-1,	-1,	-1,	-1,	-1,	-1,	23,	-1,	-1,	-1,	-1,	30,	-1,	13,	-1,	-1,	-1,	7,	-1,	-1,	-1|
-1,	-1,	-1,	-1,	-1,	28,	-1,	-1,	-1,	31,	-1,	-1,	3,	-1,	33,	-1,	-1,	-1,	-1,	-1,	-1,	-1,	-1,	-1,	-1,	-1,	27,	-1,	-1,	-1,	-1,	12,	-1,	-1,	-1,	-1|];
